17 965
525 7 445 7 264 7 63 9 889 11 721 18
525 7 482 7 367 7 213 9 31 11 789 18
525 7 479 7 355 7 106 9 927 13
525 7 479 7 355 7 106 9 927 13
525 7 479 7 355 7 106 9 927 13
525 7 479 7 355 7 106 9 931 13
525 7 479 7 355 7 106 9 931 13
525 7 479 7 355 7 106 9 931 13
525 7 482 7 365 7 115 9 943 13
525 7 445 7 264 7 63 9 877 13
525 7 479 7 358 7 113 12
529 7 485 7 342 11
520 7 441 7 296 7 180 12
520 7 441 7 296 7 180 12
520 7 441 7 296 7 180 12
520 7 441 7 296 7 180 12
525 7 482 7 362 7 201 9 13 11 819 18
